p cnf 34 52
-18 15 0
-18 16 0
18 -15 -16 0
-19 13 0
-19 14 0
19 -13 -14 0
-20 9 0
-20 10 0
20 -9 -10 0
-21 11 0
-21 12 0
21 -11 -12 0
-22 -20 0
-22 -21 0
22 20 21 0
-23 -19 0
-23 22 0
23 19 -22 0
-24 -18 0
-24 23 0
24 18 -23 0
-25 -17 0
-25 -24 0
25 17 24 0
-26 3 0
-26 4 0
26 -3 -4 0
-27 1 0
-27 2 0
27 -1 -2 0
-28 -26 0
-28 -27 0
28 26 27 0
-29 5 0
-29 6 0
29 -5 -6 0
-30 28 0
-30 -29 0
30 -28 29 0
-31 7 0
-31 8 0
31 -7 -8 0
-32 30 0
-32 -31 0
32 -30 31 0
-33 17 0
-33 -32 0
33 -17 32 0
-34 -25 0
-34 -33 0
34 25 33 0
-34 0
